Value of objective function:      1779.481035
tF1                 3.9317
tF2                 3.9157
tF3                 4.3017
tF4                 3.5617
tF5                 3.1917
tF6                 3.5617
tF7                 3.4939
ta'                 2.5876
tb'                 2.6917
tc'                  3.294
td'                 2.1999
Sint13'             1.0266
SF1                      1
SF2                 1.5309
SF3                      1
SF4                      1
SF5                      1
SF6                      1
SF7                      3
TF1                 9.7303
TF2                 9.7303
TF3                 9.7303
TF4                 9.3603
TF5                 8.9903
TF6                 9.3603
TF7                 9.7303
Sa'                 1.6322
Sb'                 1.8399
Sc'                      1
Sd'                      3
Ta'                 2.5876
Tb'                 2.6917
Tc'                  3.294
Td'                 2.1999
Tsub4               2.3668
Tsub1'              5.8146
Tsub2'              5.4286
Tsub3'              6.2364
Tsub4'              4.8163
tsub1'               3.227
tsub2'              2.7368
tsub3'              3.6488
tsub4'              2.4495
Tint13              2.5876
tint13              2.5876
Ssub1'                   1
Ssub2'                   1
Ssub3'                   3
Ssub4'                   1
Tint13'             5.7986
tint13'              3.211
Ssub4                    1
Sint13                   3
tsub4               2.3668
T_max               9.7303
These are the duals from the node that gave the optimal solution.
r_1                      0
r_2                      0
r_3                      0
r_4                      0
r_5                      0
r_6                      0
r_7                      0
r_8                      0
r_9                      0
r_10                     0
r_11                     0
r_12                     0
r_13                     0
r_14                     0
r_15                     0
r_16                     0
r_17                1.0612
r_18                     0
r_19                     0
r_20                     0
r_21                1.0612
r_22                     0
r_23                1.0612
r_24                     0
r_25                1.1789
r_26                     0
r_27                     0
r_28                     0
r_29                1.1789
r_30                     0
r_31                1.1789
r_32                     0
r_33                     0
r_34                     0
r_35                     0
r_36                     0
r_37                     0
r_38                     0
r_39                     0
r_40                     0
r_41                     0
r_42                166.45
r_43                     0
r_44                     0
r_45                166.45
r_46                1.0612
r_47                1.0612
r_48                     0
r_49                     0
r_50                2.3055
r_51                2.3055
r_52                     0
r_53                     0
r_54                10.184
r_55                     0
r_56                     0
r_57                     0
r_58                10.184
r_59                     0
r_60                     0
r_61                177.76
r_62                     0
r_63                     0
r_64                10.184
r_65                2.3055
r_66                     0
r_67                165.27
r_68                     0
r_69                     0
r_70                177.76
r_71                166.45
r_72                     0
r_73                     0
r_74                166.45
r_75                     0
r_76                     0
r_77                     0
r_78                     0
r_79                     0
r_80                     0
r_81                     0
r_82                     0
r_83                     0
r_84                     0
r_85                     0
r_86                     0
r_87                1.0612
r_88                1.0612
r_89                     0
r_90                     0
r_91                2.3055
r_92                2.3055
r_93                     0
r_94                     0
r_95                10.184
r_96                10.184
r_97                     0
r_98                     0
